StringID   Type       x          y          demand     ReadyTime  DueDate    ServiceTime 
D0        d         40.0      50.0      0.0       0.0       1236.0    0.0       
S1        f         73.0      52.0      0.0       0.0       1236.0    0.0       
S5        f         32.0      80.0      0.0       0.0       1236.0    0.0       
C5        c         42.0      65.0      10.0      950.0     1026.0    90.0      
S10       f         1.0       56.0      0.0       0.0       1236.0    0.0       
S12       f         -5.0      38.0      0.0       0.0       1236.0    0.0       
C14       c         22.0      85.0      10.0      263.0     327.0     90.0      
S15       f         39.0      31.0      0.0       0.0       1236.0    0.0       
S17       f         59.0      17.0      0.0       0.0       1236.0    0.0       
C21       c         30.0      52.0      20.0      11.0      73.0      90.0      
C24       c         25.0      50.0      10.0      72.0      138.0     90.0      
C25       c         25.0      52.0      40.0      158.0     232.0     90.0      
C31       c         10.0      35.0      20.0      467.0     517.0     90.0      
C32       c         10.0      40.0      30.0      271.0     337.0     90.0      
C36       c         5.0       45.0      10.0      278.0     346.0     90.0      
C46       c         30.0      32.0      30.0      601.0     665.0     90.0      
C47       c         30.0      35.0      10.0      698.0     754.0     90.0      
C48       c         28.0      30.0      10.0      511.0     569.0     90.0      
C55       c         42.0      15.0      10.0      905.0     963.0     90.0      
C58       c         38.0      5.0       30.0      256.0     320.0     90.0      
C67       c         47.0      40.0      10.0      13.0      88.0      90.0      
C69       c         45.0      35.0      10.0      448.0     516.0     90.0      
C70       c         95.0      30.0      30.0      390.0     444.0     90.0      
C81       c         85.0      35.0      30.0      761.0     823.0     90.0      
C83       c         72.0      55.0      10.0      556.0     618.0     90.0      
C92       c         67.0      85.0      20.0      459.0     519.0     90.0      
C100      c         55.0      85.0      20.0      744.0     798.0     90.0      

Q xxxxxxxxxxxxxxxxxxxx /79.69/
C xxxxxxxxxxxxxxxxxxxxx /200.0/
r xxxxxxxxxxxxxx /1.0/
g xxxxxxxxxxxxxxxxxxxxxxx /3.39/
v xxxxxxxxxxxxxxx /1.0/
